<?xml version = "1.0" encoding="UTF-8" standalone="yes"?>
<CPLEXSolution version="1.2">
 <header
   problemName="mknap01_4"
   objectiveValue="6155.3333333333339"
   solutionTypeValue="1"
   solutionTypeString="basic"
   solutionStatusValue="1"
   solutionStatusString="optimal"
   solutionMethodString="dual"
   primalFeasible="1"
   dualFeasible="1"
   simplexIterations="5"
   writeLevel="1"/>
 <quality
   epRHS="9.9999999999999995e-07"
   epOpt="9.9999999999999995e-07"
   maxPrimalInfeas="0"
   maxDualInfeas="0"
   maxPrimalResidual="5.6843418860808015e-14"
   maxDualResidual="0"
   maxX="1"
   maxPi="6"
   maxSlack="53.5"
   maxRedCost="1450"
   kappa="32.420483091787439"/>
 <linearConstraints>
  <constraint name="c0" index="0" status="BS" slack="53.5" dual="-0"/>
  <constraint name="c1" index="1" status="LL" slack="0" dual="3.333333333333333"/>
  <constraint name="c2" index="2" status="BS" slack="49.933333333333337" dual="-0"/>
  <constraint name="c3" index="3" status="BS" slack="34.100000000000001" dual="-0"/>
  <constraint name="c4" index="4" status="BS" slack="33.18333333333333" dual="-0"/>
  <constraint name="c5" index="5" status="BS" slack="42.433333333333323" dual="-0"/>
  <constraint name="c6" index="6" status="BS" slack="27.400000000000002" dual="-0"/>
  <constraint name="c7" index="7" status="BS" slack="24.450000000000006" dual="-0"/>
  <constraint name="c8" index="8" status="BS" slack="16.75" dual="-0"/>
  <constraint name="c9" index="9" status="LL" slack="0" dual="6"/>
 </linearConstraints>
 <variables>
  <variable name="x0" index="0" status="UL" value="1" reducedCost="55.333333333333343"/>
  <variable name="x1" index="1" status="UL" value="1" reducedCost="25.333333333333343"/>
  <variable name="x2" index="2" status="LL" value="0" reducedCost="-7.3333333333333286"/>
  <variable name="x3" index="3" status="LL" value="0" reducedCost="-143.33333333333331"/>
  <variable name="x4" index="4" status="LL" value="0" reducedCost="-207.33333333333331"/>
  <variable name="x5" index="5" status="LL" value="0" reducedCost="-20"/>
  <variable name="x6" index="6" status="LL" value="0" reducedCost="-140.99999999999997"/>
  <variable name="x7" index="7" status="LL" value="0" reducedCost="-53.333333333333329"/>
  <variable name="x8" index="8" status="UL" value="1" reducedCost="6.6666666666666714"/>
  <variable name="x9" index="9" status="BS" value="0.4333333333333329" reducedCost="0"/>
  <variable name="x10" index="10" status="LL" value="0" reducedCost="-285.33333333333331"/>
  <variable name="x11" index="11" status="LL" value="0" reducedCost="-86.666666666666657"/>
  <variable name="x12" index="12" status="LL" value="0" reducedCost="-141.33333333333331"/>
  <variable name="x13" index="13" status="UL" value="1" reducedCost="46.666666666666742"/>
  <variable name="x14" index="14" status="UL" value="1" reducedCost="396.66666666666674"/>
  <variable name="x15" index="15" status="BS" value="0.95000000000000084" reducedCost="0"/>
  <variable name="x16" index="16" status="UL" value="1" reducedCost="164.66666666666669"/>
  <variable name="x17" index="17" status="UL" value="1" reducedCost="4.6666666666666714"/>
  <variable name="x18" index="18" status="UL" value="1" reducedCost="22"/>
  <variable name="x19" index="19" status="UL" value="1" reducedCost="1450"/>
 </variables>
 <objectiveValues>
  <objective index="0" name="" value="6155.3333333333339"/>
 </objectiveValues>
</CPLEXSolution>
